; Filename: C:\Users\tiwar\AppData\Local\Programs\Python\Python313\Lib\site-packages\wntr\tests\networks_for_testing\Anytown_multipointcurves.inp
; WNTR: 1.5.0
; Created: 2026-07-26 12:22:58
[TITLE]
ANYTOWN example

[JUNCTIONS]
;ID                      Elevation       Demand Pattern                 
 1                                 20    469.17967197 1                          ;
 2                                 50             200 1                          ;
 3                                 50             200 1                          ;
 4                                 50    634.76693089 1                          ;
 5                                 80             600 1                          ;
 6                                 80             600 1                          ;
 7                                 80    625.89677449 1                          ;
 8                                 80             400 1                          ;
 9                                120             400 1                          ;
 10                               120    367.79415962 1                          ;
 11                               120             400 1                          ;
 12                                50             500 1                          ;
 13                                50    492.32861515 1                          ;
 14                                50             500 1                          ;
 15                                50             500 1                          ;
 16                               120    434.92512056 1                          ;
 17                               120            1000 1                          ;
 18                                50             500 1                          ;
 19                                50     959.9919378 1                          ;
 20                                20               0 1                          ;
 21                                50               0 1                          ;
 22                               120    400.00002282 1                          ;

[RESERVOIRS]
;ID                                   Head                  Pattern
 40                                10                            ;

[TANKS]
;ID                              Elevation           Init Level            Min Level            Max Level             Diameter           Min Volume Volume Curve         Overflow            
 41                               215              10              10              35           32.65               0 VCUR1                                       ;
 42                               215              10              10              35           32.65               0                                             ;

[PIPES]
;ID                   Node1                Node2                              Length             Diameter            Roughness           Minor Loss               Status
 1                    1                    2                              12000              12    123.56566893               0                 Open   ;
 2                    1                    12                             12000              12    64.556641147               0                 Open   ;
 3                    1                    13                             12000              16    62.502251514               0                 Open   ;
 4                    1                    20                               100              30    146.84084449               0                 Open   ;
 5                    2                    3                               6000              10    113.98357271               0                 Open   ;
 6                    2                    4                               9000              10     119.1990356               0                 Open   ;
 7                    2                    13                              9000              12    72.187217214               0                 Open   ;
 8                    2                    14                              6000              10    138.87011136               0                 Open   ;
 9                    3                    4                               6000              10    122.48696386               0                 Open   ;
 11                   4                    8                              12000               8    139.88717445               0                 Open   ;
 12                   4                    15                              6000              10    112.54497867               0                 Open   ;
 17                   8                    9                              12000               8    134.60416772               0                 Open   ;
 18                   8                    15                              6000              10    104.51676034               0                 Open   ;
 19                   8                    16                              6000               8    107.33792468               0                 Open   ;
 20                   8                    17                              6000               8    115.17715018               0                 Open   ;
 21                   9                    10                              6000               8    129.30566945               0                 Open   ;
 22                   10                   11                              6000               8    123.42013012               0                 Open   ;
 23                   10                   17                              6000              10    107.56251677               0                 Open   ;
 24                   11                   12                              6000               8    140.19632273               0                 Open   ;
 26                   12                   17                              6000              10    103.93897201               0                 Open   ;
 27                   12                   18                              6000               8    67.929453188               0                 Open   ;
 28                   13                   14                              6000              12    69.987418191               0                 Open   ;
 29                   13                   18                              6000              12    63.617772915               0                 Open   ;
 30                   13                   19                              6000              10    67.593563856               0                 Open   ;
 31                   14                   15                              6000              12    75.114381694               0                 Open   ;
 32                   14                   19                              6000              10    62.655482397               0                 Open   ;
 33                   14                   21                               100              12    102.12809281               0                 Open   ;
 34                   15                   16                              6000              10    65.852296741               0                 Open   ;
 35                   15                   19                              6000              10    67.338313573               0                 Open   ;
 36                   16                   17                              6000               8    106.08539887               0                 Open   ;
 37                   16                   18                              6000              12    65.725640335               0                 Open   ;
 38                   16                   19                              6000              10    76.514077188               0                 Open   ;
 39                   17                   18                              6000               8    115.43145167               0                 Open   ;
 40                   17                   22                               100              12    123.64266308               0                 Open   ;
 41                   18                   19                              6000              10    58.839452394               0                 Open   ;
 142                  21                   41                                 1              12    121.29605009               0                 Open   ;
 143                  22                   42                                 1              12     101.6289575               0                 Open   ;
 110                  4                    5                               6000              12    118.21731078               0                 Open   ;
 113                  5                    6                               6000              12    116.77786786               0                 Open   ;
 114                  6                    7                               6000              12    132.46180881               0                 Open   ;
 115                  6                    8                               6000              12    115.71548565               0                 Open   ;
 116                  7                    8                               6000              12    124.55858412               0                 Open   ;
 125                  11                   17                              9000              12    140.22914323               0                 Open   ;

[PUMPS]
;ID                   Node1                Node2                Properties          
 78                   40                   20                   HEAD     2                    PATTERN    2                      ;
 79                   40                   20                   HEAD     2                    PATTERN    3                      ;
 80                   40                   20                   HEAD     2                    PATTERN    4                      ;

[VALVES]
;ID                   Node1                Node2                            Diameter Type              Setting           Minor Loss

[TAGS]
;type      name       tag       

[DEMANDS]
;ID        Demand     Pattern   

[STATUS]
;ID        Setting   

[PATTERNS]
;ID        Multipliers

1 1.000000 1.000000 1.000000 0.900000 0.900000 0.900000
1 0.700000 0.700000 0.700000 0.600000 0.600000 0.600000
1 1.200000 1.200000 1.200000 1.300000 1.300000 1.300000
1 1.200000 1.200000 1.200000 1.100000 1.100000 1.100000

2 1.000000 1.000000 1.000000 1.000000 1.000000 1.000000
2 1.000000 1.000000 1.000000 1.000000 1.000000 1.000000
2 1.000000 1.000000 1.000000 1.000000 1.000000 1.000000
2 1.000000 1.000000 1.000000 1.000000 1.000000 1.000000

3 1.000000 1.000000 1.000000 1.000000 1.000000 1.000000
3 1.000000 1.000000 1.000000 1.000000 1.000000 1.000000
3 1.000000 1.000000 1.000000 1.000000 1.000000 1.000000
3 1.000000 1.000000 1.000000 1.000000 1.000000 1.000000

4 1.000000 1.000000 1.000000 1.000000 1.000000 1.000000
4 1.000000 1.000000 1.000000 1.000000 1.000000 1.000000
4 1.000000 1.000000 1.000000 1.000000 1.000000 1.000000
4 1.000000 1.000000 1.000000 1.000000 1.000000 1.000000

[CURVES]
;ID         X-Value      Y-Value     
;PUMP: 2
 2              0.000000  1324.800000   ;
 2           1675.100000  1299.600000   ;
 2           2795.700000  1289.800000   ;
 2           4497.900000  1280.000000   ;
 2           5967.900000  1260.400000   ;
 2           7344.000000  1240.800000   ;
 2           8967.200000  1210.000000   ;
 2           9718.300000  1182.000000   ;
 2          11337.500000  1142.800000   ;

;EFFICIENCY: E1
 E1             0.000000     0.000000   ;
 E1          2000.000000    50.000000   ;
 E1          4000.000000    65.000000   ;
 E1          6000.000000    55.000000   ;
 E1          8000.000000    40.000000   ;

;VOLUME: VCUR1
 VCUR1         10.000000     0.000000   ;
 VCUR1         11.000000   226.190000   ;
 VCUR1         12.000000   659.730000   ;
 VCUR1         13.000000  1281.770000   ;
 VCUR1         14.000000  2073.450000   ;
 VCUR1         15.000000  3015.930000   ;
 VCUR1         16.000000  4090.350000   ;
 VCUR1         17.000000  5277.880000   ;
 VCUR1         18.000000  6559.650000   ;
 VCUR1         19.000000  7916.810000   ;
 VCUR1         20.000000  9330.530000   ;
 VCUR1         21.000000 10781.950000   ;
 VCUR1         22.000000 12252.210000   ;
 VCUR1         23.000000 13722.480000   ;
 VCUR1         24.000000 15173.890000   ;
 VCUR1         25.000000 16587.610000   ;
 VCUR1         26.000000 17944.780000   ;
 VCUR1         27.000000 19226.550000   ;
 VCUR1         28.000000 20414.070000   ;
 VCUR1         29.000000 21488.490000   ;
 VCUR1         30.000000 22430.970000   ;
 VCUR1         31.000000 23222.650000   ;
 VCUR1         32.000000 23844.690000   ;
 VCUR1         33.000000 24278.230000   ;
 VCUR1         34.000000 24504.420000   ;
 VCUR1         35.000000 24730.420000   ;


[CONTROLS]

[RULES]

[ENERGY]
GLOBAL EFFICIENCY      75.0000
GLOBAL PRICE           0.0000
DEMAND CHARGE          0.0000
PUMP 78         EFFIC   E1
PUMP 79         EFFIC   E1
PUMP 80         EFFIC   E1

[EMITTERS]
;ID        Flow coefficient

[QUALITY]

[SOURCES]
;Node      Type       Quality    Pattern   

[REACTIONS]
;Type           Pipe/Tank               Coefficient

 ORDER BULK 1
 ORDER TANK 1
 ORDER WALL 1
 GLOBAL BULK 0.0000    
 GLOBAL WALL 0.0000    
 LIMITING POTENTIAL 0.0000    
 ROUGHNESS CORRELATION 0.0000    

[MIXING]
;Tank ID             Model Fraction

[TIMES]
DURATION             00:00:00
HYDRAULIC TIMESTEP   00:01:00
QUALITY TIMESTEP     00:01:00
PATTERN TIMESTEP     01:00:00
PATTERN START        00:00:00
REPORT TIMESTEP      01:00:00
REPORT START         00:00:00
START CLOCKTIME      06:00:00 PM
RULE TIMESTEP        00:06:00
STATISTIC            NONE      

[REPORT]
SUMMARY    NO
PAGE       0

[OPTIONS]
UNITS                GPM                 
HEADLOSS             H-W                 
SPECIFIC GRAVITY     1
VISCOSITY            1
TRIALS               40
ACCURACY             0.001
CHECKFREQ            2
MAXCHECK             10
UNBALANCED           CONTINUE 10
PATTERN              1                   
DEMAND MULTIPLIER    1
EMITTER EXPONENT     0.5
QUALITY              NONE                
DIFFUSIVITY          1
TOLERANCE            0.01

[COORDINATES]
;Node      X-Coord    Y-Coord   
1                7682.330000000       3371.150000000
2                7633.710000000       5737.440000000
3                7520.260000000       7293.350000000
4                6175.040000000       7568.880000000
5                5591.570000000       8460.290000000
6                4100.490000000       8071.310000000
7                3192.870000000       7763.370000000
8                3321.190000000       6696.550000000
9                1305.620000000       4850.970000000
10               2317.450000000       3588.200000000
11               3701.630000000       2892.060000000
12               4846.030000000       3354.940000000
13               6450.570000000       4424.640000000
14               6466.770000000       5769.850000000
15               5094.450000000       6482.090000000
16               4017.860000000       5615.960000000
17               3005.490000000       4292.430000000
18               4846.030000000       4440.840000000
19               5332.250000000       5332.250000000
20               8544.180000000       3371.150000000
21               6094.000000000       6499.190000000
22               2422.680000000       4519.090000000
40               8700.600000000       3371.150000000
41               6094.000000000       6600.190000000
42               2422.680000000       4700.090000000

[VERTICES]
;Link      X-Coord    Y-Coord   

[LABELS]

[BACKDROP]
DIMENSIONS    935.87    2613.65    9070.35    8738.70
UNITS    NONE
OFFSET    0.00    0.00

[END]
